(set-logic BV) (define-fun origCir ((n376 Bool) (n378 Bool) (n371 Bool) (n373 Bool) (i_17 Bool)) Bool (and (and (and n378 (xor n371 n373)) n376) i_17)) (synth-fun skel ((n376 Bool) (n378 Bool) (n371 Bool) (n373 Bool) (i_17 Bool)) Bool) (declare-var n376 Bool) (declare-var n378 Bool) (declare-var n371 Bool) (declare-var n373 Bool) (declare-var i_17 Bool) (constraint (= (origCir n376 n378 n371 n373 i_17) (skel n376 n378 n371 n373 i_17))) (check-synth)
